problems/csplib-prob056/sonet-models/noch/O2/lingeling/model_4_1-s3ring13-solution000001.solution
language Essence 1.3

letting network be mset({1, 2}, {1, 2}, {1, 3, 4, 9, 10}, {2, 4, 6, 10, 12}, {4, 8}, {5, 6, 7, 9}, {9, 11, 12, 13})
$ Here is a simple "visualisation" for the value above.
$  1  2
$  1  2
$  1  3  4  9 10
$  2  4  6 10 12
$  4  8
$  5  6  7  9
$  9 11 12 13

